Maximize
F - ff - gg

Subject to
F - f1 - f2 - f3 - f4 = 0
f1 - 40X5 - 10X31 - 40X113 - 20X123 - 40X128 - 40X170 = 0
f2 - 20.0Y113 - 20.0Y128 = 0
f3 - 12.0Z5 = 0
f4 - 8.0V5 - 2.0V31 - 4.0V123 - 8.0V170 = 0

ff - 0.011677s5 - 0.011677s31 - 0.011677s113 - 0.011677s123 - 0.011677s128 - 0.011677s170 
- 0.011677t113 - 0.011677t128 
- 0.011677u5 
- 0.011677r5 - 0.011677r31 - 0.011677r123 - 0.011677r170 
= 0
gg - 1.221159Y113 - 2.396578Y128 
- 3.068622Z5 
- 2.060622V5 - 2.371126V31 - 2.961977V123 - 2.469051V170 = 0

n1 - X5 - X31 - X113 - X123 - X128 - X170 = 0
n2 - Y113 - Y128 = 0
n3 - Z5 = 0
n4 - V5 - V31 - V123 - V170 = 0

X113 + Y113 <= 1
X128 + Y128 <= 1

X5 + Z5 <= 1

X5 + V5 <= 1
X31 + V31 <= 1
X123 + V123 <= 1
X170 + V170 <= 1

x133x128x1 
+ y133y128y1 
<= 1

x100x128x1 
+ y100y128y1 
<= 1
x203x128x1 
+ y203y128y1 
<= 2

x24x128x1 
+ y24y128y1 
<= 1


x138x128x1 
+ y138y128y1 
<= 1
x133x5x2 + x133x31x2 + x133x113x2 + x133x123x2 + x133x170x2 
+ y133y113y2 
<= 1
x171x5x2 + x171x31x2 + x171x113x2 + x171x123x2 + x171x170x2 
+ y171y113y2 
<= 1
x100x5x2 + x100x31x2 + x100x113x2 + x100x123x2 + x100x170x2 
+ y100y113y2 
<= 1

x14x5x2 + x14x31x2 + x14x113x2 + x14x123x2 + x14x170x2 
+ y14y113y2 
<= 1

x68x5x2 + x68x31x2 + x68x113x2 + x68x123x2 + x68x170x2 
+ y68y113y2 
<= 2



x171x31x3 + x171x113x3 + x171x123x3 
+ y171y113y3 
<= 1


x14x31x3 + x14x113x3 + x14x123x3 
+ y14y113y3 
<= 1
x24x31x3 + x24x113x3 + x24x123x3 
+ y24y113y3 
<= 1

x168x31x3 + x168x113x3 + x168x123x3 
+ y168y113y3 
<= 2
x138x31x3 + x138x113x3 + x138x123x3 
+ y138y113y3 
<= 1
x133x128x1 

<= 1

x100x128x1 

<= 1
x203x128x1 

<= 2

x24x128x1 

<= 1


x138x128x1 

<= 1
x133x5x2 + x133x31x2 + x133x113x2 + x133x123x2 + x133x170x2 
+ z133z5z2 
<= 1
x171x5x2 + x171x31x2 + x171x113x2 + x171x123x2 + x171x170x2 
+ z171z5z2 
<= 1
x100x5x2 + x100x31x2 + x100x113x2 + x100x123x2 + x100x170x2 
+ z100z5z2 
<= 1

x14x5x2 + x14x31x2 + x14x113x2 + x14x123x2 + x14x170x2 
+ z14z5z2 
<= 1

x68x5x2 + x68x31x2 + x68x113x2 + x68x123x2 + x68x170x2 
+ z68z5z2 
<= 2



x171x31x3 + x171x113x3 + x171x123x3 

<= 1


x14x31x3 + x14x113x3 + x14x123x3 

<= 1
x24x31x3 + x24x113x3 + x24x123x3 

<= 1

x168x31x3 + x168x113x3 + x168x123x3 

<= 2
x138x31x3 + x138x113x3 + x138x123x3 

<= 1
x133x128x1 

<= 1

x100x128x1 

<= 1
x203x128x1 

<= 2

x24x128x1 

<= 1


x138x128x1 

<= 1
x133x5x2 + x133x31x2 + x133x113x2 + x133x123x2 + x133x170x2 
+ v133v5v2 + v133v31v2 + v133v123v2 + v133v170v2 
<= 1
x171x5x2 + x171x31x2 + x171x113x2 + x171x123x2 + x171x170x2 
+ v171v5v2 + v171v31v2 + v171v123v2 + v171v170v2 
<= 1
x100x5x2 + x100x31x2 + x100x113x2 + x100x123x2 + x100x170x2 
+ v100v5v2 + v100v31v2 + v100v123v2 + v100v170v2 
<= 1

x14x5x2 + x14x31x2 + x14x113x2 + x14x123x2 + x14x170x2 
+ v14v5v2 + v14v31v2 + v14v123v2 + v14v170v2 
<= 1

x68x5x2 + x68x31x2 + x68x113x2 + x68x123x2 + x68x170x2 
+ v68v5v2 + v68v31v2 + v68v123v2 + v68v170v2 
<= 2



x171x31x3 + x171x113x3 + x171x123x3 
+ v171v31v3 + v171v123v3 
<= 1


x14x31x3 + x14x113x3 + x14x123x3 
+ v14v31v3 + v14v123v3 
<= 1
x24x31x3 + x24x113x3 + x24x123x3 
+ v24v31v3 + v24v123v3 
<= 1

x168x31x3 + x168x113x3 + x168x123x3 
+ v168v31v3 + v168v123v3 
<= 2
x138x31x3 + x138x113x3 + x138x123x3 
+ v138v31v3 + v138v123v3 
<= 1
x133x5x2 + x171x5x2 + x100x5x2 + x14x5x2 + x68x5x2 + x31x5x2 + x123x5x2 + x170x5x2 
- y5y113y2 - y5y0y2
= 0

x133x31x2 + x171x31x2 + x100x31x2 + x14x31x2 + x68x31x2 + x123x31x2 + x170x31x2 
- x31x5x2 
- y31y113y2 - y31y0y2
= 0
x171x31x3 + x14x31x3 + x24x31x3 + x168x31x3 + x138x31x3 + x123x31x3 
- y31y113y3 - y31y0y3
= 0

x133x113x2 + x171x113x2 + x100x113x2 + x14x113x2 + x68x113x2 + x123x113x2 
+ y133y113y2 + y171y113y2 + y100y113y2 + y14y113y2 + y68y113y2 + y5y113y2 + y31y113y2 + y123y113y2 + y170y113y2 
= 0
x171x113x3 + x14x113x3 + x24x113x3 + x168x113x3 + x138x113x3 + x123x113x3 
+ y171y113y3 + y14y113y3 + y24y113y3 + y168y113y3 + y138y113y3 + y31y113y3 + y123y113y3 
= 0

x133x123x2 + x171x123x2 + x100x123x2 + x14x123x2 + x68x123x2 
- x123x5x2 - x123x31x2 - x123x113x2 - x123x170x2 
- y123y113y2 - y123y0y2
= 0
x171x123x3 + x14x123x3 + x24x123x3 + x168x123x3 + x138x123x3 
- x123x31x3 - x123x113x3 
- y123y113y3 - y123y0y3
= 0

x133x128x1 + x100x128x1 + x203x128x1 + x24x128x1 + x138x128x1 
+ y133y128y1 + y100y128y1 + y203y128y1 + y24y128y1 + y138y128y1 
= 0

x133x170x2 + x171x170x2 + x100x170x2 + x14x170x2 + x68x170x2 + x123x170x2 
- x170x5x2 - x170x31x2 
- y170y113y2 - y170y0y2
= 0


x133x5x2 + x171x5x2 + x100x5x2 + x14x5x2 + x68x5x2 + x31x5x2 + x123x5x2 + x170x5x2 
+ z133z5z2 + z171z5z2 + z100z5z2 + z14z5z2 + z68z5z2 + z31z5z2 + z113z5z2 + z123z5z2 + z170z5z2 
= 0

x133x31x2 + x171x31x2 + x100x31x2 + x14x31x2 + x68x31x2 + x123x31x2 + x170x31x2 
- x31x5x2 
- z31z5z2 - z31z0z2
= 0
x171x31x3 + x14x31x3 + x24x31x3 + x168x31x3 + x138x31x3 + x123x31x3 
= 0

x133x113x2 + x171x113x2 + x100x113x2 + x14x113x2 + x68x113x2 + x123x113x2 
- z113z5z2 - z113z0z2
= 0
x171x113x3 + x14x113x3 + x24x113x3 + x168x113x3 + x138x113x3 + x123x113x3 
= 0

x133x123x2 + x171x123x2 + x100x123x2 + x14x123x2 + x68x123x2 
- x123x5x2 - x123x31x2 - x123x113x2 - x123x170x2 
- z123z5z2 - z123z0z2
= 0
x171x123x3 + x14x123x3 + x24x123x3 + x168x123x3 + x138x123x3 
- x123x31x3 - x123x113x3 
= 0

x133x128x1 + x100x128x1 + x203x128x1 + x24x128x1 + x138x128x1 
= 0

x133x170x2 + x171x170x2 + x100x170x2 + x14x170x2 + x68x170x2 + x123x170x2 
- x170x5x2 - x170x31x2 
- z170z5z2 - z170z0z2
= 0


x133x5x2 + x171x5x2 + x100x5x2 + x14x5x2 + x68x5x2 + x31x5x2 + x123x5x2 + x170x5x2 
+ v133v5v2 + v171v5v2 + v100v5v2 + v14v5v2 + v68v5v2 + v31v5v2 + v113v5v2 + v123v5v2 + v170v5v2 
= 0

x133x31x2 + x171x31x2 + x100x31x2 + x14x31x2 + x68x31x2 + x123x31x2 + x170x31x2 
+ v133v31v2 + v171v31v2 + v100v31v2 + v14v31v2 + v68v31v2 + v113v31v2 + v123v31v2 + v170v31v2 
- x31x5x2 
- v31v5v2 - v31v0v2
= 0
x171x31x3 + x14x31x3 + x24x31x3 + x168x31x3 + x138x31x3 + x123x31x3 
+ v171v31v3 + v14v31v3 + v24v31v3 + v168v31v3 + v138v31v3 + v113v31v3 + v123v31v3 
= 0

x133x113x2 + x171x113x2 + x100x113x2 + x14x113x2 + x68x113x2 + x123x113x2 
- v113v5v2 - v113v31v2 - v113v123v2 - v113v170v2 - v113v0v2
= 0
x171x113x3 + x14x113x3 + x24x113x3 + x168x113x3 + x138x113x3 + x123x113x3 
- v113v31v3 - v113v123v3 - v113v0v3
= 0

x133x123x2 + x171x123x2 + x100x123x2 + x14x123x2 + x68x123x2 
+ v133v123v2 + v171v123v2 + v100v123v2 + v14v123v2 + v68v123v2 + v113v123v2 
- x123x5x2 - x123x31x2 - x123x113x2 - x123x170x2 
- v123v5v2 - v123v31v2 - v123v170v2 - v123v0v2
= 0
x171x123x3 + x14x123x3 + x24x123x3 + x168x123x3 + x138x123x3 
+ v171v123v3 + v14v123v3 + v24v123v3 + v168v123v3 + v138v123v3 + v113v123v3 
- x123x31x3 - x123x113x3 
- v123v31v3 - v123v0v3
= 0

x133x128x1 + x100x128x1 + x203x128x1 + x24x128x1 + x138x128x1 
= 0

x133x170x2 + x171x170x2 + x100x170x2 + x14x170x2 + x68x170x2 + x123x170x2 
+ v133v170v2 + v171v170v2 + v100v170v2 + v14v170v2 + v68v170v2 + v113v170v2 + v123v170v2 
- x170x5x2 - x170x31x2 
- v170v5v2 - v170v31v2 - v170v0v2
= 0


2X5 - x133x5x2 - x171x5x2 - x100x5x2 - x14x5x2 - x68x5x2 - x31x5x2 - x123x5x2 - x170x5x2 = 0
1X31 - x133x31x2 - x171x31x2 - x100x31x2 - x14x31x2 - x68x31x2 - x123x31x2 - x170x31x2 = 0
1X31 - x171x31x3 - x14x31x3 - x24x31x3 - x168x31x3 - x138x31x3 - x123x31x3 = 0
1X113 - x133x113x2 - x171x113x2 - x100x113x2 - x14x113x2 - x68x113x2 - x123x113x2 = 0
1X113 - x171x113x3 - x14x113x3 - x24x113x3 - x168x113x3 - x138x113x3 - x123x113x3 = 0
1X123 - x133x123x2 - x171x123x2 - x100x123x2 - x14x123x2 - x68x123x2 = 0
1X123 - x171x123x3 - x14x123x3 - x24x123x3 - x168x123x3 - x138x123x3 = 0
2X128 - x133x128x1 - x100x128x1 - x203x128x1 - x24x128x1 - x138x128x1 = 0
2X170 - x133x170x2 - x171x170x2 - x100x170x2 - x14x170x2 - x68x170x2 - x123x170x2 = 0

1Y113 - y133y113y2 - y171y113y2 - y100y113y2 - y14y113y2 - y68y113y2 - y5y113y2 - y31y113y2 - y123y113y2 - y170y113y2 = 0
1Y113 - y171y113y3 - y14y113y3 - y24y113y3 - y168y113y3 - y138y113y3 - y31y113y3 - y123y113y3 = 0
2Y128 - y133y128y1 - y100y128y1 - y203y128y1 - y24y128y1 - y138y128y1 = 0

2Z5 - z133z5z2 - z171z5z2 - z100z5z2 - z14z5z2 - z68z5z2 - z31z5z2 - z113z5z2 - z123z5z2 - z170z5z2 = 0

2V5 - v133v5v2 - v171v5v2 - v100v5v2 - v14v5v2 - v68v5v2 - v31v5v2 - v113v5v2 - v123v5v2 - v170v5v2 = 0
1V31 - v133v31v2 - v171v31v2 - v100v31v2 - v14v31v2 - v68v31v2 - v113v31v2 - v123v31v2 - v170v31v2 = 0
1V31 - v171v31v3 - v14v31v3 - v24v31v3 - v168v31v3 - v138v31v3 - v113v31v3 - v123v31v3 = 0
1V123 - v133v123v2 - v171v123v2 - v100v123v2 - v14v123v2 - v68v123v2 - v113v123v2 = 0
1V123 - v171v123v3 - v14v123v3 - v24v123v3 - v168v123v3 - v138v123v3 - v113v123v3 = 0
2V170 - v133v170v2 - v171v170v2 - v100v170v2 - v14v170v2 - v68v170v2 - v113v170v2 - v123v170v2 = 0


s133 - s5 + 6.593999a133a5a2 <= 5.14
s133 - s31 + 6.593362a133a31a2 <= 5.14
s133 - s113 + 6.428521a133a113a2 <= 5.14
s133 - s123 + 6.607712a133a123a2 <= 5.14
s133 - s128 + 6.260617a133a128a1 <= 5.14
s133 - s170 + 6.596931a133a170a2 <= 5.14
s171 - s5 + 6.485937a171a5a2 <= 5.04
s171 - s31 + 6.485092a171a31a2 <= 5.04
s171 - s31 + 6.485092a171a31a3 <= 5.04
s171 - s113 + 6.327421a171a113a2 <= 5.04
s171 - s113 + 6.327421a171a113a3 <= 5.04
s171 - s123 + 6.499258a171a123a2 <= 5.04
s171 - s123 + 6.499258a171a123a3 <= 5.04
s171 - s170 + 6.488613a171a170a2 <= 5.04
s100 - s5 + 6.377822a100a5a2 <= 5.01
s100 - s31 + 6.335086a100a31a2 <= 5.01
s100 - s113 + 6.638510a100a113a2 <= 5.01
s100 - s123 + 6.262212a100a123a2 <= 5.01
s100 - s128 + 6.497819a100a128a1 <= 5.01
s100 - s170 + 6.323969a100a170a2 <= 5.01
s203 - s128 + 6.601828a203a128a1 <= 5.21
s14 - s5 + 6.746033a14a5a2 <= 5.38
s14 - s31 + 6.742661a14a31a2 <= 5.38
s14 - s31 + 6.742661a14a31a3 <= 5.38
s14 - s113 + 6.686491a14a113a2 <= 5.38
s14 - s113 + 6.686491a14a113a3 <= 5.38
s14 - s123 + 6.755431a14a123a2 <= 5.38
s14 - s123 + 6.755431a14a123a3 <= 5.38
s14 - s170 + 6.745667a14a170a2 <= 5.38
s24 - s31 + 6.390039a24a31a3 <= 5.13
s24 - s113 + 6.717808a24a113a3 <= 5.13
s24 - s123 + 6.319101a24a123a3 <= 5.13
s24 - s128 + 6.586872a24a128a1 <= 5.13
s68 - s5 + 6.859694a68a5a2 <= 5.54
s68 - s31 + 6.814428a68a31a2 <= 5.54
s68 - s113 + 7.166198a68a113a2 <= 5.54
s68 - s123 + 6.735143a68a123a2 <= 5.54
s68 - s170 + 6.802129a68a170a2 <= 5.54
s168 - s31 + 6.797148a168a31a3 <= 5.44
s168 - s113 + 6.645113a168a113a3 <= 5.44
s168 - s123 + 6.836501a168a123a3 <= 5.44
s138 - s31 + 6.416126a138a31a3 <= 5.25
s138 - s113 + 6.623724a138a113a3 <= 5.25
s138 - s123 + 6.449992a138a123a3 <= 5.25
s138 - s128 + 6.536762a138a128a1 <= 5.25
s31 - s5 + 7.658534a31a5a2 <= 6.61
s123 - s5 + 7.499204a123a5a2 <= 6.36
s123 - s31 + 7.450676a123a31a2 <= 6.36
s123 - s31 + 7.450676a123a31a3 <= 6.36
s123 - s113 + 7.920794a123a113a2 <= 6.36
s123 - s113 + 7.920794a123a113a3 <= 6.36
s123 - s170 + 7.436012a123a170a2 <= 6.36
s170 - s5 + 7.633245a170a5a2 <= 6.57
s170 - s31 + 7.584908a170a31a2 <= 6.57

t133 - t113 + 6.428521b133b113b2 <= 5.14
t133 - t128 + 6.260617b133b128b1 <= 5.14
t171 - t113 + 6.327421b171b113b2 <= 5.04
t171 - t113 + 6.327421b171b113b3 <= 5.04
t100 - t113 + 6.638510b100b113b2 <= 5.01
t100 - t128 + 6.497819b100b128b1 <= 5.01
t203 - t128 + 6.601828b203b128b1 <= 5.21
t14 - t113 + 6.686491b14b113b2 <= 5.38
t14 - t113 + 6.686491b14b113b3 <= 5.38
t24 - t113 + 6.717808b24b113b3 <= 5.13
t24 - t128 + 6.586872b24b128b1 <= 5.13
t68 - t113 + 7.166198b68b113b2 <= 5.54
t168 - t113 + 6.645113b168b113b3 <= 5.44
t138 - t113 + 6.623724b138b113b3 <= 5.25
t138 - t128 + 6.536762b138b128b1 <= 5.25
t5 - t113 + 21.472534b5b113b2 <= 20.00
t31 - t113 + 21.500177b31b113b2 <= 20.00
t31 - t113 + 21.500177b31b113b3 <= 20.00
t123 - t113 + 21.560793b123b113b2 <= 20.00
t123 - t113 + 21.560793b123b113b3 <= 20.00
t170 - t113 + 21.511295b170b113b2 <= 20.00

u133 - u5 + 6.593999c133c5c2 <= 5.14
u171 - u5 + 6.485937c171c5c2 <= 5.04
u100 - u5 + 6.377822c100c5c2 <= 5.01
u14 - u5 + 6.746033c14c5c2 <= 5.38
u68 - u5 + 6.859694c68c5c2 <= 5.54
u31 - u5 + 21.048534c31c5c2 <= 20.00
u113 - u5 + 21.472534c113c5c2 <= 20.00
u123 - u5 + 21.139204c123c5c2 <= 20.00
u170 - u5 + 21.063246c170c5c2 <= 20.00

r133 - r5 + 6.593999d133d5d2 <= 5.14
r133 - r31 + 6.593362d133d31d2 <= 5.14
r133 - r123 + 6.607712d133d123d2 <= 5.14
r133 - r170 + 6.596931d133d170d2 <= 5.14
r171 - r5 + 6.485937d171d5d2 <= 5.04
r171 - r31 + 6.485092d171d31d2 <= 5.04
r171 - r31 + 6.485092d171d31d3 <= 5.04
r171 - r123 + 6.499258d171d123d2 <= 5.04
r171 - r123 + 6.499258d171d123d3 <= 5.04
r171 - r170 + 6.488613d171d170d2 <= 5.04
r100 - r5 + 6.377822d100d5d2 <= 5.01
r100 - r31 + 6.335086d100d31d2 <= 5.01
r100 - r123 + 6.262212d100d123d2 <= 5.01
r100 - r170 + 6.323969d100d170d2 <= 5.01
r14 - r5 + 6.746033d14d5d2 <= 5.38
r14 - r31 + 6.742661d14d31d2 <= 5.38
r14 - r31 + 6.742661d14d31d3 <= 5.38
r14 - r123 + 6.755431d14d123d2 <= 5.38
r14 - r123 + 6.755431d14d123d3 <= 5.38
r14 - r170 + 6.745667d14d170d2 <= 5.38
r24 - r31 + 6.390039d24d31d3 <= 5.13
r24 - r123 + 6.319101d24d123d3 <= 5.13
r68 - r5 + 6.859694d68d5d2 <= 5.54
r68 - r31 + 6.814428d68d31d2 <= 5.54
r68 - r123 + 6.735143d68d123d2 <= 5.54
r68 - r170 + 6.802129d68d170d2 <= 5.54
r168 - r31 + 6.797148d168d31d3 <= 5.44
r168 - r123 + 6.836501d168d123d3 <= 5.44
r138 - r31 + 6.416126d138d31d3 <= 5.25
r138 - r123 + 6.449992d138d123d3 <= 5.25
r31 - r5 + 7.658534d31d5d2 <= 6.61
r113 - r5 + 21.472534d113d5d2 <= 20.00
r113 - r31 + 21.500177d113d31d2 <= 20.00
r113 - r31 + 21.500177d113d31d3 <= 20.00
r113 - r123 + 21.560793d113d123d2 <= 20.00
r113 - r123 + 21.560793d113d123d3 <= 20.00
r113 - r170 + 21.511295d113d170d2 <= 20.00
r123 - r5 + 7.499204d123d5d2 <= 6.36
r123 - r31 + 7.450676d123d31d2 <= 6.36
r123 - r31 + 7.450676d123d31d3 <= 6.36
r123 - r170 + 7.436012d123d170d2 <= 6.36
r170 - r5 + 7.633245d170d5d2 <= 6.57
r170 - r31 + 7.584908d170d31d2 <= 6.57

x133x5x2 + x171x5x2 + x100x5x2 + x14x5x2 + x68x5x2 + x31x5x2 + x123x5x2 + x170x5x2 

- 2w5 <= 0

x133x31x2 + x171x31x2 + x100x31x2 + x14x31x2 + x68x31x2 + x123x31x2 + x170x31x2 + x171x31x3 + x14x31x3 + x24x31x3 + x168x31x3 + x138x31x3 + x123x31x3 
- x31x5x2 
- 2w31 <= 0

x133x113x2 + x171x113x2 + x100x113x2 + x14x113x2 + x68x113x2 + x123x113x2 + x171x113x3 + x14x113x3 + x24x113x3 + x168x113x3 + x138x113x3 + x123x113x3 

- 2w113 <= 0

x133x123x2 + x171x123x2 + x100x123x2 + x14x123x2 + x68x123x2 + x171x123x3 + x14x123x3 + x24x123x3 + x168x123x3 + x138x123x3 
- x123x5x2 - x123x31x2 - x123x113x2 - x123x170x2 - x123x31x3 - x123x113x3 
- 2w123 <= 0

x133x128x1 + x100x128x1 + x203x128x1 + x24x128x1 + x138x128x1 

- 2w128 <= 0

x133x170x2 + x171x170x2 + x100x170x2 + x14x170x2 + x68x170x2 + x123x170x2 
- x170x5x2 - x170x31x2 
- 2w170 <= 0

x133x5x2 + x171x5x2 + x100x5x2 + x14x5x2 + x68x5x2 + x31x5x2 + x123x5x2 + x170x5x2 

- w5 >= 0

x133x31x2 + x171x31x2 + x100x31x2 + x14x31x2 + x68x31x2 + x123x31x2 + x170x31x2 + x171x31x3 + x14x31x3 + x24x31x3 + x168x31x3 + x138x31x3 + x123x31x3 
- x31x5x2 
- w31 >= 0

x133x113x2 + x171x113x2 + x100x113x2 + x14x113x2 + x68x113x2 + x123x113x2 + x171x113x3 + x14x113x3 + x24x113x3 + x168x113x3 + x138x113x3 + x123x113x3 

- w113 >= 0

x133x123x2 + x171x123x2 + x100x123x2 + x14x123x2 + x68x123x2 + x171x123x3 + x14x123x3 + x24x123x3 + x168x123x3 + x138x123x3 
- x123x5x2 - x123x31x2 - x123x113x2 - x123x170x2 - x123x31x3 - x123x113x3 
- w123 >= 0

x133x128x1 + x100x128x1 + x203x128x1 + x24x128x1 + x138x128x1 

- w128 >= 0

x133x170x2 + x171x170x2 + x100x170x2 + x14x170x2 + x68x170x2 + x123x170x2 
- x170x5x2 - x170x31x2 
- w170 >= 0

s133 - t133 + 5.14w133 <= 5.14
s171 - t171 + 5.04w171 <= 5.04
s100 - t100 + 5.01w100 <= 5.01
s203 - t203 + 5.21w203 <= 5.21
s14 - t14 + 5.38w14 <= 5.38
s24 - t24 + 5.13w24 <= 5.13
s68 - t68 + 5.54w68 <= 5.54
s168 - t168 + 5.44w168 <= 5.44
s138 - t138 + 5.25w138 <= 5.25
s5 - t5 + 6.66w5 <= 6.66
s31 - t31 + 6.61w31 <= 6.61
s113 - t113 + 6.96w113 <= 6.96
s123 - t123 + 6.36w123 <= 6.36
s128 - t128 + 6.28w128 <= 6.28
s170 - t170 + 6.57w170 <= 6.57
s133 - u133 + 5.14w133 <= 5.14
s171 - u171 + 5.04w171 <= 5.04
s100 - u100 + 5.01w100 <= 5.01
s203 - u203 + 5.21w203 <= 5.21
s14 - u14 + 5.38w14 <= 5.38
s24 - u24 + 5.13w24 <= 5.13
s68 - u68 + 5.54w68 <= 5.54
s168 - u168 + 5.44w168 <= 5.44
s138 - u138 + 5.25w138 <= 5.25
s5 - u5 + 6.66w5 <= 6.66
s31 - u31 + 6.61w31 <= 6.61
s113 - u113 + 6.96w113 <= 6.96
s123 - u123 + 6.36w123 <= 6.36
s128 - u128 + 6.28w128 <= 6.28
s170 - u170 + 6.57w170 <= 6.57
s133 - r133 + 5.14w133 <= 5.14
s171 - r171 + 5.04w171 <= 5.04
s100 - r100 + 5.01w100 <= 5.01
s203 - r203 + 5.21w203 <= 5.21
s14 - r14 + 5.38w14 <= 5.38
s24 - r24 + 5.13w24 <= 5.13
s68 - r68 + 5.54w68 <= 5.54
s168 - r168 + 5.44w168 <= 5.44
s138 - r138 + 5.25w138 <= 5.25
s5 - r5 + 6.66w5 <= 6.66
s31 - r31 + 6.61w31 <= 6.61
s113 - r113 + 6.96w113 <= 6.96
s123 - r123 + 6.36w123 <= 6.36
s128 - r128 + 6.28w128 <= 6.28
s170 - r170 + 6.57w170 <= 6.57

s133 - t133 - 5.14w133 >= -5.14
s171 - t171 - 5.04w171 >= -5.04
s100 - t100 - 5.01w100 >= -5.01
s203 - t203 - 5.21w203 >= -5.21
s14 - t14 - 5.38w14 >= -5.38
s24 - t24 - 5.13w24 >= -5.13
s68 - t68 - 5.54w68 >= -5.54
s168 - t168 - 5.44w168 >= -5.44
s138 - t138 - 5.25w138 >= -5.25
s5 - t5 - 20.00w5 >= -20.00
s31 - t31 - 20.00w31 >= -20.00
s113 - t113 - 6.96w113 >= -6.96
s123 - t123 - 20.00w123 >= -20.00
s128 - t128 - 6.28w128 >= -6.28
s170 - t170 - 20.00w170 >= -20.00


s133 - u133 - 5.14w133 >= -5.14
s171 - u171 - 5.04w171 >= -5.04
s100 - u100 - 5.01w100 >= -5.01
s203 - u203 - 5.21w203 >= -5.21
s14 - u14 - 5.38w14 >= -5.38
s24 - u24 - 5.13w24 >= -5.13
s68 - u68 - 5.54w68 >= -5.54
s168 - u168 - 5.44w168 >= -5.44
s138 - u138 - 5.25w138 >= -5.25
s5 - u5 - 6.66w5 >= -6.66
s31 - u31 - 20.00w31 >= -20.00
s113 - u113 - 20.00w113 >= -20.00
s123 - u123 - 20.00w123 >= -20.00
s128 - u128 - 20.00w128 >= -20.00
s170 - u170 - 20.00w170 >= -20.00


s133 - r133 - 5.14w133 >= -5.14
s171 - r171 - 5.04w171 >= -5.04
s100 - r100 - 5.01w100 >= -5.01
s203 - r203 - 5.21w203 >= -5.21
s14 - r14 - 5.38w14 >= -5.38
s24 - r24 - 5.13w24 >= -5.13
s68 - r68 - 5.54w68 >= -5.54
s168 - r168 - 5.44w168 >= -5.44
s138 - r138 - 5.25w138 >= -5.25
s5 - r5 - 6.76w5 >= -6.76
s31 - r31 - 6.61w31 >= -6.61
s113 - r113 - 20.00w113 >= -20.00
s123 - r123 - 6.36w123 >= -6.36
s128 - r128 - 20.00w128 >= -20.00
s170 - r170 - 6.57w170 >= -6.57


s5 + 6.66a133a5a2 <= 12.66
s5 + 6.66a171a5a2 <= 12.66
s5 + 6.66a100a5a2 <= 12.66
s5 + 6.66a14a5a2 <= 12.66
s5 + 6.66a68a5a2 <= 12.66
s5 + 6.66a31a5a2 <= 12.66
s5 + 6.66a123a5a2 <= 12.66
s5 + 6.66a170a5a2 <= 12.66
s31 + 6.61a133a31a2 <= 12.61
s31 + 6.61a171a31a2 <= 12.61
s31 + 6.61a171a31a3 <= 12.61
s31 + 6.61a100a31a2 <= 12.61
s31 + 6.61a14a31a2 <= 12.61
s31 + 6.61a14a31a3 <= 12.61
s31 + 6.61a24a31a3 <= 12.61
s31 + 6.61a68a31a2 <= 12.61
s31 + 6.61a168a31a3 <= 12.61
s31 + 6.61a138a31a3 <= 12.61
s31 + 6.61a123a31a2 <= 12.61
s31 + 6.61a123a31a3 <= 12.61
s31 + 6.61a170a31a2 <= 12.61
s113 + 6.96a133a113a2 <= 12.96
s113 + 6.96a171a113a2 <= 12.96
s113 + 6.96a171a113a3 <= 12.96
s113 + 6.96a100a113a2 <= 12.96
s113 + 6.96a14a113a2 <= 12.96
s113 + 6.96a14a113a3 <= 12.96
s113 + 6.96a24a113a3 <= 12.96
s113 + 6.96a68a113a2 <= 12.96
s113 + 6.96a168a113a3 <= 12.96
s113 + 6.96a138a113a3 <= 12.96
s113 + 6.96a123a113a2 <= 12.96
s113 + 6.96a123a113a3 <= 12.96
s123 + 6.36a133a123a2 <= 12.36
s123 + 6.36a171a123a2 <= 12.36
s123 + 6.36a171a123a3 <= 12.36
s123 + 6.36a100a123a2 <= 12.36
s123 + 6.36a14a123a2 <= 12.36
s123 + 6.36a14a123a3 <= 12.36
s123 + 6.36a24a123a3 <= 12.36
s123 + 6.36a68a123a2 <= 12.36
s123 + 6.36a168a123a3 <= 12.36
s123 + 6.36a138a123a3 <= 12.36
s128 + 6.28a133a128a1 <= 12.28
s128 + 6.28a100a128a1 <= 12.28
s128 + 6.28a203a128a1 <= 12.28
s128 + 6.28a24a128a1 <= 12.28
s128 + 6.28a138a128a1 <= 12.28
s170 + 6.57a133a170a2 <= 12.57
s170 + 6.57a171a170a2 <= 12.57
s170 + 6.57a100a170a2 <= 12.57
s170 + 6.57a14a170a2 <= 12.57
s170 + 6.57a68a170a2 <= 12.57
s170 + 6.57a123a170a2 <= 12.57

u5 - 6.0c133c5c2 > 0
u5 - 6.0c171c5c2 > 0
u5 - 6.0c100c5c2 > 0
u5 - 6.0c14c5c2 > 0
u5 - 6.0c68c5c2 > 0
u5 - 6.0c31c5c2 > 0
u5 - 6.0c113c5c2 > 0
u5 - 6.0c123c5c2 > 0
u5 - 6.0c170c5c2 > 0

r5 - 6.0d133d5d2 > 0
r5 - 6.0d171d5d2 > 0
r5 - 6.0d100d5d2 > 0
r5 - 6.0d14d5d2 > 0
r5 - 6.0d68d5d2 > 0
r5 - 6.0d31d5d2 > 0
r5 - 6.0d113d5d2 > 0
r5 - 6.0d123d5d2 > 0
r5 - 6.0d170d5d2 > 0
r31 - 6.0d133d31d2 > 0
r31 - 6.0d171d31d2 > 0
r31 - 6.0d171d31d3 > 0
r31 - 6.0d100d31d2 > 0
r31 - 6.0d14d31d2 > 0
r31 - 6.0d14d31d3 > 0
r31 - 6.0d24d31d3 > 0
r31 - 6.0d68d31d2 > 0
r31 - 6.0d168d31d3 > 0
r31 - 6.0d138d31d3 > 0
r31 - 6.0d113d31d2 > 0
r31 - 6.0d113d31d3 > 0
r31 - 6.0d123d31d2 > 0
r31 - 6.0d123d31d3 > 0
r31 - 6.0d170d31d2 > 0
r123 - 6.0d133d123d2 > 0
r123 - 6.0d171d123d2 > 0
r123 - 6.0d171d123d3 > 0
r123 - 6.0d100d123d2 > 0
r123 - 6.0d14d123d2 > 0
r123 - 6.0d14d123d3 > 0
r123 - 6.0d24d123d3 > 0
r123 - 6.0d68d123d2 > 0
r123 - 6.0d168d123d3 > 0
r123 - 6.0d138d123d3 > 0
r123 - 6.0d113d123d2 > 0
r123 - 6.0d113d123d3 > 0
r170 - 6.0d133d170d2 > 0
r170 - 6.0d171d170d2 > 0
r170 - 6.0d100d170d2 > 0
r170 - 6.0d14d170d2 > 0
r170 - 6.0d68d170d2 > 0
r170 - 6.0d113d170d2 > 0
r170 - 6.0d123d170d2 > 0


a133a5a2 + b133b5b2 <= 1
a171a5a2 + b171b5b2 <= 1
a100a5a2 + b100b5b2 <= 1
a14a5a2 + b14b5b2 <= 1
a68a5a2 + b68b5b2 <= 1
a31a5a2 + b31b5b2 <= 1
a123a5a2 + b123b5b2 <= 1
a170a5a2 + b170b5b2 <= 1
a133a31a2 + b133b31b2 <= 1
a171a31a2 + b171b31b2 <= 1
a171a31a3 + b171b31b3 <= 1
a100a31a2 + b100b31b2 <= 1
a14a31a2 + b14b31b2 <= 1
a14a31a3 + b14b31b3 <= 1
a24a31a3 + b24b31b3 <= 1
a68a31a2 + b68b31b2 <= 1
a168a31a3 + b168b31b3 <= 1
a138a31a3 + b138b31b3 <= 1
a123a31a2 + b123b31b2 <= 1
a123a31a3 + b123b31b3 <= 1
a170a31a2 + b170b31b2 <= 1
a133a113a2 + b133b113b2 <= 1
a171a113a2 + b171b113b2 <= 1
a171a113a3 + b171b113b3 <= 1
a100a113a2 + b100b113b2 <= 1
a14a113a2 + b14b113b2 <= 1
a14a113a3 + b14b113b3 <= 1
a24a113a3 + b24b113b3 <= 1
a68a113a2 + b68b113b2 <= 1
a168a113a3 + b168b113b3 <= 1
a138a113a3 + b138b113b3 <= 1
a123a113a2 + b123b113b2 <= 1
a123a113a3 + b123b113b3 <= 1
a133a123a2 + b133b123b2 <= 1
a171a123a2 + b171b123b2 <= 1
a171a123a3 + b171b123b3 <= 1
a100a123a2 + b100b123b2 <= 1
a14a123a2 + b14b123b2 <= 1
a14a123a3 + b14b123b3 <= 1
a24a123a3 + b24b123b3 <= 1
a68a123a2 + b68b123b2 <= 1
a168a123a3 + b168b123b3 <= 1
a138a123a3 + b138b123b3 <= 1
a133a128a1 + b133b128b1 <= 1
a100a128a1 + b100b128b1 <= 1
a203a128a1 + b203b128b1 <= 1
a24a128a1 + b24b128b1 <= 1
a138a128a1 + b138b128b1 <= 1
a133a170a2 + b133b170b2 <= 1
a171a170a2 + b171b170b2 <= 1
a100a170a2 + b100b170b2 <= 1
a14a170a2 + b14b170b2 <= 1
a68a170a2 + b68b170b2 <= 1
a123a170a2 + b123b170b2 <= 1


a133a5a2 + c133c5c2 <= 1
a171a5a2 + c171c5c2 <= 1
a100a5a2 + c100c5c2 <= 1
a14a5a2 + c14c5c2 <= 1
a68a5a2 + c68c5c2 <= 1
a31a5a2 + c31c5c2 <= 1
a123a5a2 + c123c5c2 <= 1
a170a5a2 + c170c5c2 <= 1
a133a31a2 + c133c31c2 <= 1
a171a31a2 + c171c31c2 <= 1
a171a31a3 + c171c31c3 <= 1
a100a31a2 + c100c31c2 <= 1
a14a31a2 + c14c31c2 <= 1
a14a31a3 + c14c31c3 <= 1
a24a31a3 + c24c31c3 <= 1
a68a31a2 + c68c31c2 <= 1
a168a31a3 + c168c31c3 <= 1
a138a31a3 + c138c31c3 <= 1
a123a31a2 + c123c31c2 <= 1
a123a31a3 + c123c31c3 <= 1
a170a31a2 + c170c31c2 <= 1
a133a113a2 + c133c113c2 <= 1
a171a113a2 + c171c113c2 <= 1
a171a113a3 + c171c113c3 <= 1
a100a113a2 + c100c113c2 <= 1
a14a113a2 + c14c113c2 <= 1
a14a113a3 + c14c113c3 <= 1
a24a113a3 + c24c113c3 <= 1
a68a113a2 + c68c113c2 <= 1
a168a113a3 + c168c113c3 <= 1
a138a113a3 + c138c113c3 <= 1
a123a113a2 + c123c113c2 <= 1
a123a113a3 + c123c113c3 <= 1
a133a123a2 + c133c123c2 <= 1
a171a123a2 + c171c123c2 <= 1
a171a123a3 + c171c123c3 <= 1
a100a123a2 + c100c123c2 <= 1
a14a123a2 + c14c123c2 <= 1
a14a123a3 + c14c123c3 <= 1
a24a123a3 + c24c123c3 <= 1
a68a123a2 + c68c123c2 <= 1
a168a123a3 + c168c123c3 <= 1
a138a123a3 + c138c123c3 <= 1
a133a128a1 + c133c128c1 <= 1
a100a128a1 + c100c128c1 <= 1
a203a128a1 + c203c128c1 <= 1
a24a128a1 + c24c128c1 <= 1
a138a128a1 + c138c128c1 <= 1
a133a170a2 + c133c170c2 <= 1
a171a170a2 + c171c170c2 <= 1
a100a170a2 + c100c170c2 <= 1
a14a170a2 + c14c170c2 <= 1
a68a170a2 + c68c170c2 <= 1
a123a170a2 + c123c170c2 <= 1


a133a5a2 + d133d5d2 <= 1
a171a5a2 + d171d5d2 <= 1
a100a5a2 + d100d5d2 <= 1
a14a5a2 + d14d5d2 <= 1
a68a5a2 + d68d5d2 <= 1
a31a5a2 + d31d5d2 <= 1
a123a5a2 + d123d5d2 <= 1
a170a5a2 + d170d5d2 <= 1
a133a31a2 + d133d31d2 <= 1
a171a31a2 + d171d31d2 <= 1
a171a31a3 + d171d31d3 <= 1
a100a31a2 + d100d31d2 <= 1
a14a31a2 + d14d31d2 <= 1
a14a31a3 + d14d31d3 <= 1
a24a31a3 + d24d31d3 <= 1
a68a31a2 + d68d31d2 <= 1
a168a31a3 + d168d31d3 <= 1
a138a31a3 + d138d31d3 <= 1
a123a31a2 + d123d31d2 <= 1
a123a31a3 + d123d31d3 <= 1
a170a31a2 + d170d31d2 <= 1
a133a113a2 + d133d113d2 <= 1
a171a113a2 + d171d113d2 <= 1
a171a113a3 + d171d113d3 <= 1
a100a113a2 + d100d113d2 <= 1
a14a113a2 + d14d113d2 <= 1
a14a113a3 + d14d113d3 <= 1
a24a113a3 + d24d113d3 <= 1
a68a113a2 + d68d113d2 <= 1
a168a113a3 + d168d113d3 <= 1
a138a113a3 + d138d113d3 <= 1
a123a113a2 + d123d113d2 <= 1
a123a113a3 + d123d113d3 <= 1
a133a123a2 + d133d123d2 <= 1
a171a123a2 + d171d123d2 <= 1
a171a123a3 + d171d123d3 <= 1
a100a123a2 + d100d123d2 <= 1
a14a123a2 + d14d123d2 <= 1
a14a123a3 + d14d123d3 <= 1
a24a123a3 + d24d123d3 <= 1
a68a123a2 + d68d123d2 <= 1
a168a123a3 + d168d123d3 <= 1
a138a123a3 + d138d123d3 <= 1
a133a128a1 + d133d128d1 <= 1
a100a128a1 + d100d128d1 <= 1
a203a128a1 + d203d128d1 <= 1
a24a128a1 + d24d128d1 <= 1
a138a128a1 + d138d128d1 <= 1
a133a170a2 + d133d170d2 <= 1
a171a170a2 + d171d170d2 <= 1
a100a170a2 + d100d170d2 <= 1
a14a170a2 + d14d170d2 <= 1
a68a170a2 + d68d170d2 <= 1
a123a170a2 + d123d170d2 <= 1

x133x5x2 - 2a133a5a2 <= 0
x133x31x2 - 1a133a31a2 <= 0
x133x113x2 - 1a133a113a2 <= 0
x133x123x2 - 1a133a123a2 <= 0
x133x128x1 - 2a133a128a1 <= 0
x133x170x2 - 2a133a170a2 <= 0
x171x5x2 - 2a171a5a2 <= 0
x171x31x2 - 1a171a31a2 <= 0
x171x31x3 - 1a171a31a3 <= 0
x171x113x2 - 1a171a113a2 <= 0
x171x113x3 - 1a171a113a3 <= 0
x171x123x2 - 1a171a123a2 <= 0
x171x123x3 - 1a171a123a3 <= 0
x171x170x2 - 2a171a170a2 <= 0
x100x5x2 - 2a100a5a2 <= 0
x100x31x2 - 1a100a31a2 <= 0
x100x113x2 - 1a100a113a2 <= 0
x100x123x2 - 1a100a123a2 <= 0
x100x128x1 - 2a100a128a1 <= 0
x100x170x2 - 2a100a170a2 <= 0
x203x128x1 - 2a203a128a1 <= 0
x14x5x2 - 2a14a5a2 <= 0
x14x31x2 - 1a14a31a2 <= 0
x14x31x3 - 1a14a31a3 <= 0
x14x113x2 - 1a14a113a2 <= 0
x14x113x3 - 1a14a113a3 <= 0
x14x123x2 - 1a14a123a2 <= 0
x14x123x3 - 1a14a123a3 <= 0
x14x170x2 - 2a14a170a2 <= 0
x24x31x3 - 1a24a31a3 <= 0
x24x113x3 - 1a24a113a3 <= 0
x24x123x3 - 1a24a123a3 <= 0
x24x128x1 - 2a24a128a1 <= 0
x68x5x2 - 2a68a5a2 <= 0
x68x31x2 - 1a68a31a2 <= 0
x68x113x2 - 1a68a113a2 <= 0
x68x123x2 - 1a68a123a2 <= 0
x68x170x2 - 2a68a170a2 <= 0
x168x31x3 - 1a168a31a3 <= 0
x168x113x3 - 1a168a113a3 <= 0
x168x123x3 - 1a168a123a3 <= 0
x138x31x3 - 1a138a31a3 <= 0
x138x113x3 - 1a138a113a3 <= 0
x138x123x3 - 1a138a123a3 <= 0
x138x128x1 - 2a138a128a1 <= 0
x31x5x2 - 2a31a5a2 <= 0
x123x5x2 - 2a123a5a2 <= 0
x123x31x2 - 1a123a31a2 <= 0
x123x31x3 - 1a123a31a3 <= 0
x123x113x2 - 1a123a113a2 <= 0
x123x113x3 - 1a123a113a3 <= 0
x123x170x2 - 2a123a170a2 <= 0
x170x5x2 - 2a170a5a2 <= 0
x170x31x2 - 1a170a31a2 <= 0
y133y113y2 - 1b133b113b2 <= 0
y133y128y1 - 2b133b128b1 <= 0
y171y113y2 - 1b171b113b2 <= 0
y171y113y3 - 1b171b113b3 <= 0
y100y113y2 - 1b100b113b2 <= 0
y100y128y1 - 2b100b128b1 <= 0
y203y128y1 - 2b203b128b1 <= 0
y14y113y2 - 1b14b113b2 <= 0
y14y113y3 - 1b14b113b3 <= 0
y24y113y3 - 1b24b113b3 <= 0
y24y128y1 - 2b24b128b1 <= 0
y68y113y2 - 1b68b113b2 <= 0
y168y113y3 - 1b168b113b3 <= 0
y138y113y3 - 1b138b113b3 <= 0
y138y128y1 - 2b138b128b1 <= 0
y5y113y2 - 1b5b113b2 <= 0
y31y113y2 - 1b31b113b2 <= 0
y31y113y3 - 1b31b113b3 <= 0
y123y113y2 - 1b123b113b2 <= 0
y123y113y3 - 1b123b113b3 <= 0
y170y113y2 - 1b170b113b2 <= 0
z133z5z2 - 2c133c5c2 <= 0
z171z5z2 - 2c171c5c2 <= 0
z100z5z2 - 2c100c5c2 <= 0
z14z5z2 - 2c14c5c2 <= 0
z68z5z2 - 2c68c5c2 <= 0
z31z5z2 - 2c31c5c2 <= 0
z113z5z2 - 2c113c5c2 <= 0
z123z5z2 - 2c123c5c2 <= 0
z170z5z2 - 2c170c5c2 <= 0
v133v5v2 - 2d133d5d2 <= 0
v133v31v2 - 1d133d31d2 <= 0
v133v123v2 - 1d133d123d2 <= 0
v133v170v2 - 2d133d170d2 <= 0
v171v5v2 - 2d171d5d2 <= 0
v171v31v2 - 1d171d31d2 <= 0
v171v31v3 - 1d171d31d3 <= 0
v171v123v2 - 1d171d123d2 <= 0
v171v123v3 - 1d171d123d3 <= 0
v171v170v2 - 2d171d170d2 <= 0
v100v5v2 - 2d100d5d2 <= 0
v100v31v2 - 1d100d31d2 <= 0
v100v123v2 - 1d100d123d2 <= 0
v100v170v2 - 2d100d170d2 <= 0
v14v5v2 - 2d14d5d2 <= 0
v14v31v2 - 1d14d31d2 <= 0
v14v31v3 - 1d14d31d3 <= 0
v14v123v2 - 1d14d123d2 <= 0
v14v123v3 - 1d14d123d3 <= 0
v14v170v2 - 2d14d170d2 <= 0
v24v31v3 - 1d24d31d3 <= 0
v24v123v3 - 1d24d123d3 <= 0
v68v5v2 - 2d68d5d2 <= 0
v68v31v2 - 1d68d31d2 <= 0
v68v123v2 - 1d68d123d2 <= 0
v68v170v2 - 2d68d170d2 <= 0
v168v31v3 - 1d168d31d3 <= 0
v168v123v3 - 1d168d123d3 <= 0
v138v31v3 - 1d138d31d3 <= 0
v138v123v3 - 1d138d123d3 <= 0
v31v5v2 - 2d31d5d2 <= 0
v113v5v2 - 2d113d5d2 <= 0
v113v31v2 - 1d113d31d2 <= 0
v113v31v3 - 1d113d31d3 <= 0
v113v123v2 - 1d113d123d2 <= 0
v113v123v3 - 1d113d123d3 <= 0
v113v170v2 - 2d113d170d2 <= 0
v123v5v2 - 2d123d5d2 <= 0
v123v31v2 - 1d123d31d2 <= 0
v123v31v3 - 1d123d31d3 <= 0
v123v170v2 - 2d123d170d2 <= 0
v170v5v2 - 2d170d5d2 <= 0
v170v31v2 - 1d170d31d2 <= 0

Bounds
s133 = 5.140617
t133 = 5.140617
u133 = 5.140617
r133 = 5.140617
s171 = 5.038823
t171 = 5.038823
u171 = 5.038823
r171 = 5.038823
s100 = 5.011701
t100 = 5.011701
u100 = 5.011701
r100 = 5.011701
s203 = 5.214816
t203 = 5.214816
u203 = 5.214816
r203 = 5.214816
s14 = 5.381860
t14 = 5.381860
u14 = 5.381860
r14 = 5.381860
s24 = 5.128081
t24 = 5.128081
u24 = 5.128081
r24 = 5.128081
s68 = 5.539070
t68 = 5.539070
u68 = 5.539070
r68 = 5.539070
s168 = 5.443563
t168 = 5.443563
u168 = 5.443563
r168 = 5.443563
s138 = 5.253919
t138 = 5.253919
u138 = 5.253919
r138 = 5.253919
5.76 <= s5 <= 6.66
5.61 <= s31 <= 6.61
5.96 <= s113 <= 6.96
5.36 <= s123 <= 6.36
5.28 <= s128 <= 6.28
5.57 <= s170 <= 6.57

0.00 <= t5 <= 20.00
0.00 <= t31 <= 20.00
5.96 <= t113 <= 6.96
0.00 <= t123 <= 20.00
5.28 <= t128 <= 6.28
0.00 <= t170 <= 20.00

5.66 <= u5 <= 6.66
0.00 <= u31 <= 20.00
0.00 <= u113 <= 20.00
0.00 <= u123 <= 20.00
0.00 <= u128 <= 20.00
0.00 <= u170 <= 20.00

5.76 <= r5 <= 6.76
5.61 <= r31 <= 6.61
0.00 <= r113 <= 20.00
5.36 <= r123 <= 6.36
0.00 <= r128 <= 20.00
5.57 <= r170 <= 6.57

General
x133x5x2 x133x31x2 x133x113x2 x133x123x2 x133x128x1 x133x170x2 
x171x5x2 x171x31x2 x171x31x3 x171x113x2 x171x113x3 x171x123x2 x171x123x3 x171x170x2 
x100x5x2 x100x31x2 x100x113x2 x100x123x2 x100x128x1 x100x170x2 
x203x128x1 
x14x5x2 x14x31x2 x14x31x3 x14x113x2 x14x113x3 x14x123x2 x14x123x3 x14x170x2 
x24x31x3 x24x113x3 x24x123x3 x24x128x1 
x68x5x2 x68x31x2 x68x113x2 x68x123x2 x68x170x2 
x168x31x3 x168x113x3 x168x123x3 
x138x31x3 x138x113x3 x138x123x3 x138x128x1 
x31x5x2 
x123x5x2 x123x31x2 x123x31x3 x123x113x2 x123x113x3 x123x170x2 
x170x5x2 x170x31x2 

y133y113y2 y133y128y1 
y171y113y2 y171y113y3 
y100y113y2 y100y128y1 
y203y128y1 
y14y113y2 y14y113y3 
y24y113y3 y24y128y1 
y68y113y2 
y168y113y3 
y138y113y3 y138y128y1 
y5y113y2 
y31y113y2 y31y113y3 
y123y113y2 y123y113y3 
y170y113y2 

z133z5z2 
z171z5z2 
z100z5z2 
z14z5z2 
z68z5z2 
z31z5z2 
z113z5z2 
z123z5z2 
z170z5z2 

v133v5v2 v133v31v2 v133v123v2 v133v170v2 
v171v5v2 v171v31v2 v171v31v3 v171v123v2 v171v123v3 v171v170v2 
v100v5v2 v100v31v2 v100v123v2 v100v170v2 
v14v5v2 v14v31v2 v14v31v3 v14v123v2 v14v123v3 v14v170v2 
v24v31v3 v24v123v3 
v68v5v2 v68v31v2 v68v123v2 v68v170v2 
v168v31v3 v168v123v3 
v138v31v3 v138v123v3 
v31v5v2 
v113v5v2 v113v31v2 v113v31v3 v113v123v2 v113v123v3 v113v170v2 
v123v5v2 v123v31v2 v123v31v3 v123v170v2 
v170v5v2 v170v31v2 

Binaries
X5 X31 X113 X123 X128 X170 
Y113 Y128 
Z5 
V5 V31 V123 V170 

w5 w31 w113 w123 w128 w170 

a133a5a2 a133a31a2 a133a113a2 a133a123a2 a133a128a1 a133a170a2 
a171a5a2 a171a31a2 a171a31a3 a171a113a2 a171a113a3 a171a123a2 a171a123a3 a171a170a2 
a100a5a2 a100a31a2 a100a113a2 a100a123a2 a100a128a1 a100a170a2 
a203a128a1 
a14a5a2 a14a31a2 a14a31a3 a14a113a2 a14a113a3 a14a123a2 a14a123a3 a14a170a2 
a24a31a3 a24a113a3 a24a123a3 a24a128a1 
a68a5a2 a68a31a2 a68a113a2 a68a123a2 a68a170a2 
a168a31a3 a168a113a3 a168a123a3 
a138a31a3 a138a113a3 a138a123a3 a138a128a1 
a31a5a2 
a123a5a2 a123a31a2 a123a31a3 a123a113a2 a123a113a3 a123a170a2 
a170a5a2 a170a31a2 

b133b113b2 b133b128b1 
b171b113b2 b171b113b3 
b100b113b2 b100b128b1 
b203b128b1 
b14b113b2 b14b113b3 
b24b113b3 b24b128b1 
b68b113b2 
b168b113b3 
b138b113b3 b138b128b1 
b5b113b2 
b31b113b2 b31b113b3 
b123b113b2 b123b113b3 
b170b113b2 

c133c5c2 
c171c5c2 
c100c5c2 
c14c5c2 
c68c5c2 
c31c5c2 
c113c5c2 
c123c5c2 
c170c5c2 

d133d5d2 d133d31d2 d133d123d2 d133d170d2 
d171d5d2 d171d31d2 d171d31d3 d171d123d2 d171d123d3 d171d170d2 
d100d5d2 d100d31d2 d100d123d2 d100d170d2 
d14d5d2 d14d31d2 d14d31d3 d14d123d2 d14d123d3 d14d170d2 
d24d31d3 d24d123d3 
d68d5d2 d68d31d2 d68d123d2 d68d170d2 
d168d31d3 d168d123d3 
d138d31d3 d138d123d3 
d31d5d2 
d113d5d2 d113d31d2 d113d31d3 d113d123d2 d113d123d3 d113d170d2 
d123d5d2 d123d31d2 d123d31d3 d123d170d2 
d170d5d2 d170d31d2 

End